WARNING: for repeatability, setting FPU to use double precision
============================[ Problem Statistics ]=============================
|                                                                             |
|  Number of symmetries:          37                                          |
|  Number of invertingSyms:        0                                          |
|  Number of variables:           380                                         |
|  Number of clauses:            3630                                         |
|  Parse time:                   0.00 s                                       |
|                                                                             |
============================[ Search Statistics ]==============================
| Conflicts |          ORIGINAL         |          LEARNT          | Progress |
|           |    Vars  Clauses Literals |    Limit  Clauses Lit/Cl |          |
===============================================================================
|       100 |     380     3630     7600 |     1331      100    149 |  0.001 % |
|       250 |     380     3630     7600 |     1464      250    120 |  0.001 % |
|       475 |     380     3630     7600 |     1610      475    101 |  0.001 % |
|       812 |     380     3630     7600 |     1771      812     93 |  0.001 % |
|      1318 |     380     3630     7600 |     1948     1318     90 |  0.001 % |
|      2077 |     380     3630     7600 |     2143     1071     89 |  0.001 % |
|      3216 |     380     3630     7600 |     2357     2210    110 |  0.001 % |
|      4924 |     380     3630     7600 |     2593     1507     98 |  0.001 % |
|      7486 |     380     3630     7600 |     2853     2602    101 |  0.001 % |
|     11330 |     380     3630     7600 |     3138     1831     85 |  0.001 % |
|     17096 |     380     3630     7600 |     3452     2676    146 |  0.001 % |
|     25745 |     380     3630     7600 |     3797     2287    142 |  0.001 % |
|     38719 |     380     3630     7600 |     4177     3391    162 |  0.001 % |
|     58180 |     380     3630     7600 |     4594     3288    161 |  0.001 % |
|     87372 |     380     3630     7600 |     5054     4007    173 |  0.001 % |
|    131161 |     380     3630     7600 |     5559     3277    166 |  0.001 % |
|    196845 |     380     3630     7600 |     6115     3000    154 |  0.001 % |
|    295371 |     380     3630     7600 |     6727     3967    162 |  0.001 % |
|    443160 |     380     3630     7600 |     7400     6339    157 |  0.001 % |
|    664843 |     380     3630     7600 |     8140     4441    166 |  0.001 % |
|    997368 |     380     3630     7600 |     8954     4657    153 |  0.001 % |
|   1496156 |     380     3630     7600 |     9849     5470    158 |  0.001 % |
|   2244338 |     380     3630     7600 |    10834     5367    154 |  0.001 % |
|   3366612 |     380     3630     7600 |    11918     7648    158 |  0.001 % |
|   5050023 |     380     3630     7600 |    13109    11936    141 |  0.001 % |
|   7575139 |     380     3630     7600 |    14420     8598    153 |  0.001 % |
|  11362814 |     380     3630     7600 |    15863     7993    130 |  0.001 % |
|  17044326 |     380     3630     7600 |    17449    10817    158 |  0.001 % |
|  25566595 |     380     3630     7600 |    19194    15934    157 |  0.001 % |
|  38349998 |     380     3630     7600 |    21113    13900    144 |  0.001 % |
===============================================================================
restarts              : 54267
conflicts             : 38996844       (7672 /sec)
symconflicts          : 3338926        (657 /sec)
decisions             : 66905690       (0.00 % random) (13162 /sec)
propagations          : 732929679      (144189 /sec)
sympropagations       : 15938595       (3136 /sec)
conflict literals     : 6038490785     (7.73 % deleted)
Memory used           : 126.00 MB
CPU time              : 5083.11 s

INDETERMINATE
